W=7;
H=5;

MAX_TIME=31;
MAX_TRACKS=9;

TARGET=(3,7);

TRAINS=[(2,2,RIGHT),(4,2,RIGHT),(3,6,LEFT)];
DECOYS=[];

INIT_POS=[
(2,2,STRAIGHT_RL),
(2,3,ESWITCH_L_R_D),
(3,4,ESWITCH_R_L_T),
(3,5,ESWITCH_R_L_D),
(3,6,STRAIGHT_RL),
(3,7,STRAIGHT_RL),
(4,2,STRAIGHT_RL),
(4,3,ESWITCH_T_D_L),
];
TUNNEL_PAIRS=[];

GATES=[];
ACTIVATIONS=[];

DSWITCHES=[];
STATIONS=[];
